NAME : grossezf\1c2c3c4a.knd
COMMENT : 
TYPE : CVRP
DIMENSION : 201
EDGE_WEIGHT_TYPE : EUC_2D
CAPACITY : 10100
CAPACITY_VOL : 50
NODE_COORD_TYPE : TWOD_COORDS
NODE_COORD_SECTION
1 23452 56766
2 23800 58276
3 24420 55553
4 24176 55398
5 23931 55292
6 24130 55410
7 23180 55267
8 24146 55425
9 23190 55273
10 23030 55295
11 23219 55266
12 24950 57017
13 23843 55285
14 23142 55294
15 24929 56887
16 24935 56838
17 23447 55295
18 24356 55602
19 23579 55309
20 23115 55335
21 23123 55335
22 23733 58200
23 23922 55396
24 24240 55567
25 24843 56356
26 24869 56524
27 24883 56792
28 23830 55380
29 23975 55432
30 23951 55420
31 24284 55623
32 23597 55371
33 23903 55424
34 23628 55374
35 24498 57703
36 24287 57879
37 24802 56449
38 24802 56449
39 24802 56449
40 24802 56449
41 24425 57731
42 23984 55481
43 24188 55615
44 24816 56869
45 24286 55684
46 23121 55428
47 23019 55479
48 24727 57241
49 23452 55413
50 23515 55422
51 24572 57504
52 23881 55489
53 23347 55426
54 23454 55438
55 23950 55529
56 23761 58056
57 23665 55459
58 23370 55455
59 24753 56509
60 24708 56453
61 23855 55552
62 23475 55492
63 23855 55552
64 24025 55616
65 24313 55844
66 23818 55550
67 23489 55512
68 23229 55531
69 23829 55571
70 24035 55676
71 23179 55556
72 24013 55662
73 24509 56143
74 23164 55563
75 23689 55559
76 23018 55618
77 23410 55543
78 23101 55593
79 24018 55702
80 23373 55579
81 24253 55897
82 24590 56416
83 23277 55606
84 24214 55883
85 23702 55621
86 23407 55599
87 23041 55663
88 24214 55883
89 23682 55610
90 24377 56090
91 24085 55818
92 24518 56310
93 24240 55948
94 23804 55676
95 23841 55718
96 24195 55945
97 23909 55740
98 24347 56131
99 23774 55691
100 23400 55668
101 23652 57853
102 23652 57853
103 23775 55710
104 23909 55765
105 24195 55977
106 23588 55702
107 23962 57708
108 24210 57532
109 23190 55723
110 23190 55723
111 23689 55730
112 24061 55904
113 24127 57572
114 23836 57747
115 24188 56012
116 23652 55753
117 24233 56129
118 23487 55763
119 23274 55784
120 24398 57052
121 23483 55802
122 23656 55820
123 23483 55802
124 23301 55814
125 23920 55935
126 23301 55814
127 24413 56718
128 24229 56252
129 24012 56013
130 23662 55843
131 23754 55878
132 24163 56158
133 24176 56171
134 24363 56594
135 24178 56225
136 24120 56156
137 24055 56088
138 24169 56220
139 23723 55902
140 24121 56180
141 23532 55879
142 23519 55875
143 24180 57250
144 24138 56215
145 23450 55884
146 24021 56114
147 24300 56546
148 23946 56063
149 23789 55960
150 23789 55960
151 23157 55987
152 23788 56004
153 23630 57572
154 23888 56082
155 23986 56153
156 23960 56143
157 24078 56272
158 23026 57407
159 24211 56866
160 23652 56034
161 23417 56022
162 24146 57030
163 23749 56115
164 24149 56815
165 23777 56153
166 23359 57454
167 24023 57112
168 23726 56152
169 23038 57291
170 24073 56832
171 23163 56220
172 23163 56220
173 23789 56258
174 23062 57227
175 23995 56531
176 23526 57347
177 23289 56203
178 23653 56262
179 23742 56329
180 23933 56973
181 23183 57202
182 23838 56480
183 23793 56432
184 23296 56342
185 23543 56358
186 23292 56452
187 23194 56531
188 23292 56452
189 23653 56512
190 23620 57007
191 23706 56625
192 23692 56903
193 23724 56704
194 23692 56903
195 23730 56722
196 23184 56759
197 23227 56693
198 23630 56823
199 23503 56845
200 23381 56740
201 23381 56740
DEMAND_SECTION
1 0 0
2 40 0
3 40 0
4 40 0
5 20 0
6 30 0
7 40 0
8 70 0
9 60 0
10 60 0
11 20 0
12 80 0
13 20 0
14 10 0
15 20 0
16 30 0
17 20 0
18 10 0
19 10 0
20 80 0
21 20 0
22 70 0
23 60 0
24 70 0
25 90 0
26 60 0
27 20 0
28 60 0
29 10 0
30 20 0
31 70 0
32 10 0
33 70 0
34 60 0
35 70 0
36 80 0
37 20 0
38 30 0
39 80 0
40 40 0
41 20 0
42 20 0
43 90 0
44 40 0
45 20 0
46 70 0
47 70 0
48 60 0
49 80 0
50 50 0
51 10 0
52 40 0
53 10 0
54 60 0
55 90 0
56 10 0
57 70 0
58 70 0
59 30 0
60 20 0
61 10 0
62 20 0
63 90 0
64 60 0
65 90 0
66 40 0
67 80 0
68 70 0
69 60 0
70 10 0
71 60 0
72 40 0
73 50 0
74 70 0
75 20 0
76 80 0
77 50 0
78 90 0
79 90 0
80 10 0
81 50 0
82 10 0
83 60 0
84 20 0
85 20 0
86 20 0
87 20 0
88 10 0
89 10 0
90 20 0
91 50 0
92 40 0
93 50 0
94 30 0
95 50 0
96 80 0
97 20 0
98 10 0
99 20 0
100 60 0
101 70 0
102 40 0
103 70 0
104 60 0
105 10 0
106 80 0
107 80 0
108 40 0
109 30 0
110 20 0
111 30 0
112 50 0
113 30 0
114 50 0
115 20 0
116 70 0
117 40 0
118 10 0
119 40 0
120 60 0
121 20 0
122 10 0
123 80 0
124 30 0
125 60 0
126 90 0
127 20 0
128 50 0
129 70 0
130 70 0
131 30 0
132 80 0
133 20 0
134 20 0
135 30 0
136 50 0
137 50 0
138 70 0
139 10 0
140 60 0
141 60 0
142 10 0
143 60 0
144 70 0
145 10 0
146 80 0
147 20 0
148 90 0
149 90 0
150 40 0
151 40 0
152 20 0
153 70 0
154 60 0
155 80 0
156 90 0
157 90 0
158 70 0
159 30 0
160 10 0
161 90 0
162 70 0
163 40 0
164 10 0
165 60 0
166 30 0
167 40 0
168 90 0
169 70 0
170 10 0
171 10 0
172 10 0
173 50 0
174 30 0
175 90 0
176 30 0
177 30 0
178 10 0
179 20 0
180 10 0
181 20 0
182 10 0
183 70 0
184 30 0
185 40 0
186 30 0
187 90 0
188 90 0
189 30 0
190 60 0
191 30 0
192 70 0
193 20 0
194 50 0
195 50 0
196 50 0
197 50 0
198 80 0
199 70 0
200 80 0
201 30 0
PICKUP_SECTION
1 0 0
2 0 0
3 0 0
4 0 0
5 0 0
6 0 0
7 0 0
8 0 0
9 0 0
10 0 0
11 0 0
12 0 0
13 0 0
14 0 0
15 0 0
16 0 0
17 0 0
18 0 0
19 0 0
20 0 0
21 0 0
22 0 0
23 0 0
24 0 0
25 0 0
26 0 0
27 0 0
28 0 0
29 0 0
30 0 0
31 0 0
32 0 0
33 0 0
34 0 0
35 0 0
36 0 0
37 0 0
38 0 0
39 0 0
40 0 0
41 0 0
42 0 0
43 0 0
44 0 0
45 0 0
46 0 0
47 0 0
48 0 0
49 0 0
50 0 0
51 0 0
52 0 0
53 0 0
54 0 0
55 0 0
56 0 0
57 0 0
58 0 0
59 0 0
60 0 0
61 0 0
62 0 0
63 0 0
64 0 0
65 0 0
66 0 0
67 0 0
68 0 0
69 0 0
70 0 0
71 0 0
72 0 0
73 0 0
74 0 0
75 0 0
76 0 0
77 0 0
78 0 0
79 0 0
80 0 0
81 0 0
82 0 0
83 0 0
84 0 0
85 0 0
86 0 0
87 0 0
88 0 0
89 0 0
90 0 0
91 0 0
92 0 0
93 0 0
94 0 0
95 0 0
96 0 0
97 0 0
98 0 0
99 0 0
100 0 0
101 0 0
102 0 0
103 0 0
104 0 0
105 0 0
106 0 0
107 0 0
108 0 0
109 0 0
110 0 0
111 0 0
112 0 0
113 0 0
114 0 0
115 0 0
116 0 0
117 0 0
118 0 0
119 0 0
120 0 0
121 0 0
122 0 0
123 0 0
124 0 0
125 0 0
126 0 0
127 0 0
128 0 0
129 0 0
130 0 0
131 0 0
132 0 0
133 0 0
134 0 0
135 0 0
136 0 0
137 0 0
138 0 0
139 0 0
140 0 0
141 0 0
142 0 0
143 0 0
144 0 0
145 0 0
146 0 0
147 0 0
148 0 0
149 0 0
150 0 0
151 0 0
152 0 0
153 0 0
154 0 0
155 0 0
156 0 0
157 0 0
158 0 0
159 0 0
160 0 0
161 0 0
162 0 0
163 0 0
164 0 0
165 0 0
166 0 0
167 0 0
168 0 0
169 0 0
170 0 0
171 0 0
172 0 0
173 0 0
174 0 0
175 0 0
176 0 0
177 0 0
178 0 0
179 0 0
180 0 0
181 0 0
182 0 0
183 0 0
184 0 0
185 0 0
186 0 0
187 0 0
188 0 0
189 0 0
190 0 0
191 0 0
192 0 0
193 0 0
194 0 0
195 0 0
196 0 0
197 0 0
198 0 0
199 0 0
200 0 0
201 0 0
TIME_WINDOW_SECTION
2  7:00 14:00
3  7:15 12:45
4  7:15 14:15
5 10:45 15:30
6  7:00 11:15
7  7:30 15:15
8  8:30 15:15
9  8:15 15:30
10  7:00 14:45
11  7:30 13:15
12  9:00 14:15
13  7:00 14:30
14  7:00 14:15
15  7:15 15:00
16  9:00 15:30
17  7:00 14:45
18  8:30 15:00
19  8:15 15:15
20  8:00 12:45
21  8:15 15:15
22  7:15 14:15
23  9:30 15:15
24  7:30 14:00
25  7:30 14:30
26  7:15 14:00
27  9:00 14:00
28  7:45 13:30
29  8:30 14:45
30  8:15 13:00
31  7:15 13:15
32  7:45 15:00
33  9:15 15:15
34  7:15 14:30
35  7:30 15:30
36  7:45 15:45
37  9:45 14:30
38 10:30 15:00
39  8:15 13:45
40  7:15 14:00
41  8:00 13:00
42  7:00 14:45
43  9:15 15:30
44  8:00 13:30
45  8:00 14:45
46 10:30 15:45
47  7:30 15:00
48  7:45 14:00
49  8:00 15:30
50  7:30 12:00
51  7:00 13:30
52  7:15 13:30
53  8:45 14:45
54  9:45 14:30
55 10:15 15:45
56  7:30 15:15
57 10:30 15:00
58  7:00 12:30
59  9:00 14:30
60  8:45 15:00
61  9:00 14:45
62  8:00 15:30
63  8:15 16:00
64  8:45 13:15
65 10:00 15:30
66  7:00 14:30
67  9:30 15:15
68  7:30 12:45
69  7:00 15:00
70  8:30 14:45
71  8:30 13:00
72  7:30 14:45
73  8:30 13:00
74  8:00 15:00
75  8:15 15:15
76  9:45 15:00
77  7:30 14:15
78  7:00 14:00
79  7:15 14:00
80  7:00 11:30
81  7:45 13:15
82  7:00 13:30
83  9:30 14:15
84  7:45 14:30
85  8:00 13:00
86  8:45 14:30
87  7:30 13:00
88  7:15 15:00
89 10:15 16:00
90  8:45 15:00
91  8:00 15:15
92 10:00 14:30
93 10:00 15:45
94  7:00 12:30
95 10:45 15:15
96  7:30 15:00
97  7:15 15:00
98  8:30 12:45
99  9:45 14:45
100  7:15 13:00
101 11:30 16:15
102 10:45 15:30
103  7:00 15:00
104  8:45 14:30
105  7:30 13:45
106  8:00 13:30
107  9:45 15:45
108  8:30 14:00
109  8:00 15:45
110  8:15 14:00
111 10:00 14:30
112  8:00 12:45
113  8:30 13:15
114  8:00 13:15
115  7:15 12:00
116  7:45 15:30
117  9:45 15:00
118  8:00 15:30
119 10:15 14:45
120  9:00 16:15
121  7:15 15:15
122  7:45 14:00
123  9:15 16:15
124  9:30 14:15
125 10:15 16:15
126  8:15 15:45
127  7:15 11:45
128 11:00 15:30
129 10:00 16:30
130 10:00 15:00
131 11:00 15:30
132  8:15 13:15
133  8:00 13:00
134  7:00 14:45
135  8:45 15:45
136  8:45 15:45
137  9:30 16:00
138  9:45 14:45
139  7:00 12:00
140  7:00 14:15
141  7:00 12:00
142  9:45 14:45
143 11:00 16:00
144  9:45 15:30
145  9:00 16:00
146  7:15 13:45
147  7:00 15:00
148  8:15 14:15
149  7:45 12:00
150  8:45 13:15
151  7:00 13:45
152  9:30 15:00
153  8:30 16:30
154  8:15 12:45
155  8:15 16:00
156  8:30 15:15
157 10:30 15:30
158  8:15 15:30
159  9:15 16:30
160  7:15 15:15
161  8:45 14:15
162 10:00 16:45
163  7:30 14:00
164  9:45 14:30
165  8:15 14:15
166  8:15 13:30
167  7:30 13:15
168  7:30 15:30
169  7:30 13:45
170 11:15 16:00
171  8:30 14:00
172  8:30 13:00
173 11:15 16:15
174 10:15 15:45
175  9:00 15:15
176  9:00 13:45
177  7:00 11:45
178 10:30 14:45
179  9:00 14:15
180  9:45 17:00
181  7:00 11:45
182 10:30 16:45
183 11:15 16:45
184  7:30 13:30
185  8:00 12:30
186 10:15 17:00
187  7:00 13:30
188  9:00 14:30
189  8:15 14:00
190  8:30 15:15
191  8:30 14:45
192 10:45 16:45
193  9:15 16:30
194  8:00 13:15
195  7:45 14:45
196  7:45 15:00
197 11:15 16:15
198  8:15 13:15
199 10:15 17:15
200 10:00 14:30
201 10:15 17:00
STANDTIME_SECTION
2 5
3 5
4 5
5 5
6 5
7 5
8 5
9 5
10 5
11 5
12 5
13 5
14 5
15 5
16 5
17 5
18 5
19 5
20 5
21 5
22 5
23 5
24 5
25 5
26 5
27 5
28 5
29 5
30 5
31 5
32 5
33 5
34 5
35 5
36 5
37 5
38 5
39 5
40 5
41 5
42 5
43 5
44 5
45 5
46 5
47 5
48 5
49 5
50 5
51 5
52 5
53 5
54 5
55 5
56 5
57 5
58 5
59 5
60 5
61 5
62 5
63 5
64 5
65 5
66 5
67 5
68 5
69 5
70 5
71 5
72 5
73 5
74 5
75 5
76 5
77 5
78 5
79 5
80 5
81 5
82 5
83 5
84 5
85 5
86 5
87 5
88 5
89 5
90 5
91 5
92 5
93 5
94 5
95 5
96 5
97 5
98 5
99 5
100 5
101 5
102 5
103 5
104 5
105 5
106 5
107 5
108 5
109 5
110 5
111 5
112 5
113 5
114 5
115 5
116 5
117 5
118 5
119 5
120 5
121 5
122 5
123 5
124 5
125 5
126 5
127 5
128 5
129 5
130 5
131 5
132 5
133 5
134 5
135 5
136 5
137 5
138 5
139 5
140 5
141 5
142 5
143 5
144 5
145 5
146 5
147 5
148 5
149 5
150 5
151 5
152 5
153 5
154 5
155 5
156 5
157 5
158 5
159 5
160 5
161 5
162 5
163 5
164 5
165 5
166 5
167 5
168 5
169 5
170 5
171 5
172 5
173 5
174 5
175 5
176 5
177 5
178 5
179 5
180 5
181 5
182 5
183 5
184 5
185 5
186 5
187 5
188 5
189 5
190 5
191 5
192 5
193 5
194 5
195 5
196 5
197 5
198 5
199 5
200 5
201 5
DEPOT_SECTION
1
-1
EOF
